p edge 20 89 10
v 1 5
v 4 4 6 11 20
v 2 8 12
v 1 16
v 3 13 14 15
v 1 17
v 2 1 18
v 1 2
v 3 7 9 19
v 2 3 10
e 1 2
e 1 3
e 1 4
e 1 8
e 1 10
e 1 11
e 1 14
e 1 16
e 1 17
e 1 18
e 2 3
e 2 4
e 2 6
e 2 10
e 2 13
e 2 15
e 2 16
e 2 17
e 2 19
e 3 5
e 3 7
e 3 9
e 3 10
e 3 11
e 3 16
e 3 17
e 3 18
e 3 19
e 4 6
e 4 8
e 4 10
e 4 12
e 4 16
e 4 17
e 4 20
e 5 8
e 5 12
e 5 13
e 5 20
e 6 7
e 6 9
e 6 11
e 6 12
e 6 20
e 7 8
e 7 13
e 7 14
e 7 20
e 8 9
e 8 10
e 8 11
e 8 13
e 8 15
e 8 16
e 8 18
e 8 19
e 9 10
e 9 11
e 9 16
e 9 17
e 9 18
e 9 19
e 9 20
e 10 11
e 10 13
e 10 15
e 10 16
e 10 18
e 10 19
e 10 20
e 11 12
e 11 15
e 11 16
e 11 17
e 11 20
e 12 13
e 12 17
e 12 18
e 12 20
e 13 15
e 13 18
e 13 20
e 14 20
e 15 16
e 15 20
e 16 17
e 17 19
e 18 20
e 19 20
